letting n =  10
letting blocks =  [[1, 1], [1, 2], [1, 8], [2, 5], [2, 6], [2, 8], [3, 3], [3, 7], [3, 8], [3, 9], [4, 1], [4, 2], [4, 6], [4, 7], [5, 2], [5, 5], [5, 7], [5, 10], [6, 4], [6, 5], [6, 6], [6, 8], [6, 9], [7, 1], [7, 2], [7, 5], [7, 7], [7, 9], [7, 10], [8, 1], [8, 4], [8, 7], [8, 9], [8, 10], [9, 1], [9, 2], [10, 1], [10, 3], [10, 4], [10, 6], [10, 7], [10, 10]]
